16
4
6 3 1 1
1.0 0.0 0.0 0.0 0.0 0.0 0.0 0.0 0.0 0.0 0.0 0.0 0.0 0.0 0.0 0.0
0 1 1 1 -1.0
0 1 2 2 -0.16666666666666666
0 1 3 3 -0.16666666666666666
0 1 4 4 -0.16666666666666666
0 1 5 5 -0.08333333333333333
0 1 6 6 -0.16666666666666666
0 2 1 1 -1.0
0 2 1 3 -1.0
0 2 2 2 -1.0
0 2 3 3 -2.0
1 1 1 3 1.0
1 1 2 2 0.3333333333333333
1 1 2 4 0.3333333333333333
1 1 2 5 0.16666666666666666
1 1 3 3 0.3333333333333333
1 1 3 6 0.3333333333333333
1 1 4 5 0.16666666666666666
1 1 5 5 0.08333333333333333
1 1 1 4 1.0
1 1 2 2 0.16666666666666666
1 1 2 3 0.3333333333333333
1 1 2 5 0.16666666666666666
1 1 2 6 0.16666666666666666
1 1 3 5 0.16666666666666666
1 1 4 4 0.3333333333333333
1 1 5 6 0.16666666666666666
1 2 1 1 -1.0
1 2 3 3 1.0
2 1 1 3 1.0
2 1 2 2 0.3333333333333333
2 1 2 4 0.3333333333333333
2 1 2 5 0.16666666666666666
2 1 3 3 0.3333333333333333
2 1 3 6 0.3333333333333333
2 1 4 5 0.16666666666666666
2 1 5 5 0.08333333333333333
2 3 1 1 -1.0
3 1 1 4 1.0
3 1 2 2 0.16666666666666666
3 1 2 3 0.3333333333333333
3 1 2 5 0.16666666666666666
3 1 2 6 0.16666666666666666
3 1 3 5 0.16666666666666666
3 1 4 4 0.3333333333333333
3 1 5 6 0.16666666666666666
3 2 1 1 -1.0
3 2 3 3 1.0
3 4 1 1 -1.0
4 1 1 2 1.0
4 1 2 2 0.3333333333333333
4 1 2 3 0.3333333333333333
4 1 2 4 0.16666666666666666
4 1 3 4 0.3333333333333333
4 1 3 5 0.16666666666666666
4 1 4 5 0.16666666666666666
4 1 4 6 0.16666666666666666
4 1 5 5 0.08333333333333333
4 1 5 6 0.16666666666666666
4 2 1 2 1.0
4 2 2 3 2.0
5 1 1 5 1.0
5 1 2 3 0.3333333333333333
5 1 2 4 0.3333333333333333
5 1 2 5 0.16666666666666666
5 1 2 6 0.3333333333333333
5 1 3 4 0.3333333333333333
5 1 3 5 0.16666666666666666
5 1 4 6 0.3333333333333333
5 1 5 5 0.16666666666666666
6 1 1 6 1.0
6 1 2 4 0.16666666666666666
6 1 2 5 0.16666666666666666
6 1 3 3 0.3333333333333333
6 1 4 5 0.16666666666666666
6 1 6 6 0.3333333333333333
6 2 1 2 -1.0
6 2 2 3 -1.0
7 1 2 5 0.16666666666666666
7 1 3 3 0.16666666666666666
7 1 3 6 0.3333333333333333
7 1 4 4 0.3333333333333333
7 1 5 5 0.08333333333333333
8 1 2 5 0.16666666666666666
8 1 2 6 0.3333333333333333
8 1 3 4 0.3333333333333333
8 1 3 5 0.16666666666666666
8 1 4 5 0.16666666666666666
8 1 5 6 0.16666666666666666
9 1 2 6 0.16666666666666666
9 1 3 5 0.16666666666666666
9 1 4 4 0.16666666666666666
9 1 5 5 0.08333333333333333
9 2 1 3 -1.0
9 2 2 2 -1.0
9 2 3 3 -2.0
10 1 3 5 0.16666666666666666
10 1 4 5 0.16666666666666666
10 1 4 6 0.3333333333333333
10 1 5 6 0.16666666666666666
11 1 3 6 0.3333333333333333
11 1 4 5 0.16666666666666666
11 1 5 5 0.16666666666666666
12 1 4 6 0.16666666666666666
12 1 5 5 0.08333333333333333
12 2 2 3 -1.0
13 1 5 5 0.08333333333333333
13 1 6 6 0.3333333333333333
14 1 5 5 0.08333333333333333
14 1 5 6 0.16666666666666666
15 1 5 6 0.16666666666666666
16 1 6 6 0.16666666666666666
16 2 3 3 -1.0
